Route #1: 26 58 11 59 14 53
Route #2: 66 65 38 10 31 25 55 18 50
Route #3: 12 72 39 9 32 44 3 40 17
Route #4: 6 5 37 15 57 13 54 19 8 35 7
Route #5: 67 46 34 52 27 45 4 68
Route #6: 29 20 70 60 71 36 69 21 47 48 30
Route #7: 2 74 28 61 22 64 42 63 33
Route #8: 62 73 1 43 41 56 23 24 49 16 51
Route #9: 75
Cost 808